tsp_instances/TSP20/instance113.tsp
NODE_COORD_SECTION
0 37 184
1 82 140
2 78 50
3 109 189
4 190 174
5 149 192
6 80 94
7 170 34
8 16 96
9 22 27
10 103 77
11 100 68
12 176 88
13 107 82
14 143 198
15 116 36
16 59 54
17 187 90
18 174 162
19 134 4
