tsp_instances/TSP20/instance113.opt.tour
TOUR_SECTION
1
2
4
15
6
5
19
18
13
8
20
16
12
11
14
7
3
17
10
9
-1